Name:		mgval_0.45_4B
Optimal value:	-1
#Vehicles:	4
Capacity:	170
Depot Node:	1
#Nodes:		41
#Edges:		19
#Arcs:		83
#Required N:	36
#Required E:	10
#Required A:	45

ReN.	DEMAND	S. COST
N2	2	2
N3	15	15
N4	5	5
N5	13	13
N6	4	4
N7	7	7
N8	3	3
N10	7	7
N11	6	6
N12	9	9
N13	7	7
N14	11	11
N15	3	3
N16	3	3
N17	5	5
N19	4	4
N21	7	7
N22	6	6
N23	4	4
N24	7	7
N25	10	10
N26	5	5
N27	8	8
N28	19	19
N29	6	6
N30	15	15
N31	10	10
N32	7	7
N33	5	5
N35	4	4
N36	4	4
N37	21	21
N38	10	10
N39	1	1
N40	2	2
N41	2	2

ReE.	FROM N.	TO N.	T. COST	DEMAND	S. COST
E10	16	17	9	15	15
E11	26	27	7	11	11
E12	31	32	5	9	9
E13	25	31	7	11	11
E14	2	8	10	20	20
E15	13	14	8	16	16
E16	33	37	2	4	4
E17	18	22	6	14	14
E18	23	24	3	4	4
E19	3	9	1	1	1

EDGE	FROM N.	TO N.	T. COST
NrE1	4	5	1
NrE2	27	32	3
NrE3	3	4	7
NrE4	14	15	3
NrE5	38	39	9
NrE6	24	25	4
NrE7	19	20	3
NrE8	5	6	6
NrE9	29	30	3

ReA.	FROM N.	TO N.	T. COST	DEMAND	S. COST
A39	35	39	10	7	7
A40	26	19	8	10	10
A41	39	36	3	5	5
A42	34	35	2	2	2
A43	36	35	8	12	12
A44	32	36	10	6	6
A45	27	20	5	4	4
A46	25	26	6	4	4
A47	16	19	1	2	2
A48	17	20	2	2	2
A49	35	34	2	2	2
A50	10	4	3	4	4
A51	7	1	5	8	8
A52	16	11	6	12	12
A53	3	2	1	1	1
A54	14	9	5	10	10
A55	36	32	10	7	7
A56	21	20	5	10	10
A57	10	11	4	3	3
A58	24	30	8	6	6
A59	23	13	7	7	7
A60	22	21	4	5	5
A61	5	11	4	4	4
A62	38	34	7	6	6
A63	15	25	9	9	9
A64	18	17	4	4	4
A65	26	32	7	6	6
A66	23	29	5	14	14
A67	15	10	1	2	2
A68	34	29	14	17	17
A69	40	41	4	2	2
A70	20	17	2	2	2
A71	8	9	2	1	1
A72	9	8	2	2	2
A73	34	38	7	6	6
A74	31	35	4	3	3
A75	7	13	7	14	14
A76	11	12	5	4	4
A77	20	27	5	4	4
A78	27	33	5	4	4
A79	39	35	10	7	7
A80	1	2	1	1	1
A81	36	40	4	7	7
A82	11	10	4	4	4
A83	24	14	4	13	13

ARC	FROM N.	TO N.	T. COST
NrA1	33	27	5
NrA2	11	17	2
NrA3	30	31	12
NrA4	11	5	4
NrA5	8	7	2
NrA6	16	15	3
NrA7	12	6	3
NrA8	41	40	4
NrA9	30	24	8
NrA10	17	18	4
NrA11	35	31	4
NrA12	10	9	3
NrA13	21	27	1
NrA14	28	22	5
NrA15	31	30	12
NrA16	12	11	5
NrA17	21	22	4
NrA18	15	16	3
NrA19	40	39	2
NrA20	23	14	3
NrA21	4	10	3
NrA22	32	26	7
NrA23	10	15	1
NrA24	13	23	7
NrA25	25	15	9
NrA26	17	11	2
NrA27	2	1	1
NrA28	28	27	7
NrA29	26	25	6
NrA30	1	7	5
NrA31	22	28	5
NrA32	14	23	3
NrA33	6	12	3
NrA34	37	36	8
NrA35	39	40	2
NrA36	37	41	5
NrA37	2	3	1
NrA38	36	39	3
